************************************************************************
file with basedata            : mm56_.bas
initial value random generator: 1767255245
************************************************************************
projects                      :  1
jobs (incl. supersource/sink ):  12
horizon                       :  91
RESOURCES
  - renewable                 :  2   R
  - nonrenewable              :  2   N
  - doubly constrained        :  0   D
************************************************************************
PROJECT INFORMATION:
pronr.  #jobs rel.date duedate tardcost  MPM-Time
    1     10      0       13        7       13
************************************************************************
PRECEDENCE RELATIONS:
jobnr.    #modes  #successors   successors
   1        1          3           2   3   4
   2        3          3           5   9  11
   3        3          1           6
   4        3          3           6   7   8
   5        3          1          10
   6        3          1          11
   7        3          1          10
   8        3          2          10  11
   9        3          1          12
  10        3          1          12
  11        3          1          12
  12        1          0        
************************************************************************
REQUESTS/DURATIONS:
jobnr. mode duration  R 1  R 2  N 1  N 2
------------------------------------------------------------------------
  1      1     0       0    0    0    0
  2      1     2       6   10    6   10
         2     6       6   10    5   10
         3     9       5    9    3   10
  3      1     4       9    6    6    7
         2     7       8    4    5    5
         3     9       7    3    5    4
  4      1     2       8    6    9    2
         2    10       4    5    6    1
         3    10       5    6    3    1
  5      1     1       4    7    6    8
         2     1       4    6    7    8
         3     9       3    3    2    5
  6      1     4       4    4    5    7
         2     5       3    3    4    7
         3    10       2    2    3    7
  7      1     4       9    9    4    5
         2     8       4    8    4    4
         3    10       4    7    3    3
  8      1     4       6    7    6    6
         2     7       4    7    5    5
         3     9       1    3    4    4
  9      1     3       5    3    2    6
         2     7       4    3    2    6
         3     8       3    1    1    6
 10      1     1       5    7    3    9
         2     3       4    6    3    8
         3     8       2    5    1    6
 11      1     5       7    6    5    7
         2     8       7    6    3    7
         3     9       7    2    2    7
 12      1     0       0    0    0    0
************************************************************************
RESOURCEAVAILABILITIES:
  R 1  R 2  N 1  N 2
   25   25   53   67
************************************************************************
MAXIMAL LAGS:
from  to  type  delay
    1   12   ES      0
    1    2   ES      0
    2   12   ES      0
    1    3   ES      0
    3   12   ES      0
    1    4   ES      0
    4   12   ES      0
    1    5   ES      0
    5   12   ES      0
    1    6   ES      0
    6   12   ES      0
    1    7   ES      0
    7   12   ES      0
    1    8   ES      0
    8   12   ES      0
    1    9   ES      0
    9   12   ES      0
    1   10   ES      0
   10   12   ES      0
    1   11   ES      0
   11   12   ES      0
    1   12   ES      0
    2    5   SS      5
    2    5   SE      0
    2    5   ES      4
    2    5   EE      9
    2    9   SS      0
    2    9   SE     -5
    2    9   ES      6
    2    9   EE     -1
    2   11   SS     11
    2   11   SE      1
    2   11   ES     10
    2   11   EE     12
    3    6   SS     -9
    3    6   SE     -5
    3    6   ES      8
    3    6   EE      8
    4    6   SS      2
    4    6   SE     -8
    4    6   ES     10
    4    6   EE     12
    4    7   SS     -6
    4    7   SE     10
    4    7   ES    -12
    4    7   EE      4
    4    8   SS     -9
    4    8   SE      3
    4    8   ES     -8
    4    8   EE    -10
    5   10   SS     10
    5   10   SE     -3
    5   10   ES     -5
    5   10   EE     12
    6   11   SS      0
    6   11   SE     -3
    6   11   ES     -6
    6   11   EE      5
    7   10   SS      8
    7   10   SE     -9
    7   10   ES     -6
    7   10   EE    -12
    8   10   SS    -12
    8   10   SE    -12
    8   10   ES     -3
    8   10   EE     -9
    8   11   SS     -6
    8   11   SE     -7
    8   11   ES     12
    8   11   EE      9
************************************************************************
